%chk=01_NaHF.chk
%nprocshared=1
%mem=6GB
#p nosymm gen ghf pop=full gfinput iop(3/33=1) iop(3/91=36) iop(4/135=1)

pop=full, gfinput, iop(3/33=1) selected to allow the canalyzer to do
MO analysis of the resulting wavefunction
iop(3/91=N6) N:3=(default) Boettger Factor; 4=Universal Boettger Factor; 
5=Row-dependent Boettger Factor
iop(4/135=1): x2c scalar only

0 2
  Na    0.  0.  0.

!----------------------------------------------------------------------
! Basis Set Exchange
! Version 0.11
! https://www.basissetexchange.org
!----------------------------------------------------------------------
!   Basis set: x2c-TZVPall-2c
! Description: x2c-TZVPall-2c
!        Role: orbital
!     Version: 0  (Data from the original Basis Set Exchange)
!----------------------------------------------------------------------
Na     0
S    7   1.00
  27690.1423980              0.87910989662D-03
   4048.0818093              0.50547397225D-02
    909.91450810             0.24013801818D-01
    255.25400919             0.91436286065D-01
     82.352244114            0.25884808263
     29.025586482            0.46136562991
     10.651930738            0.31968756613
S    3   1.00
     54.505558598           -0.20009363294D-01
     16.600767872           -0.95976738138D-01
      2.3676469052           0.40857804127
S    2   1.00
      1.0917002312          -0.14473246954
      0.52263940066         -0.10681508638
S    1   1.00
      0.50772989290D-01      1.0000000000
S    1   1.00
      0.20228145436D-01      1.0000000000
P    5   1.00
    141.42410505             0.32997949825D-02
     32.880608236            0.23533465867D-01
     10.183756838            0.87391040746D-01
      3.5515858243           0.19687456830
      1.2507603540           0.23820675852
P    5   1.00
    141.42410505             0.58048313373D-02
     32.880608236            0.41187559943D-01
     10.183756838            0.16135022082
      3.5515858243           0.36115423090
      1.2507603540           0.45646161578
P    1   1.00
      0.42236113248          1.0000000000
P    1   1.00
      0.91000000000D-01      1.0000000000
P    1   1.00
      0.30000000000D-01      1.0000000000
D    1   1.00
      2.6090000000           1.0000000000
D    1   1.00
      0.43000000000          1.0000000000
D    1   1.00
      0.10000000000          1.0000000000
****


